c nIsolatedPIs 4
c maxPI 16
p cnf 202 559
c gate 17 3 10 0
3 -17 0
10 -17 0
-3 -10 17 0
c gate 18 4 9 0
4 -18 0
9 -18 0
-4 -9 18 0
c gate 19 -17 -18 0
-17 -19 0
-18 -19 0
17 18 19 0
c gate 20 17 18 0
17 -20 0
18 -20 0
-17 -18 20 0
c gate 21 -19 -20 0
-19 -21 0
-20 -21 0
19 20 21 0
c gate 22 2 11 0
2 -22 0
11 -22 0
-2 -11 22 0
c gate 23 21 22 0
21 -23 0
22 -23 0
-21 -22 23 0
c gate 24 -21 -22 0
-21 -24 0
-22 -24 0
21 22 24 0
c gate 25 -23 -24 0
-23 -25 0
-24 -25 0
23 24 25 0
c gate 26 3 9 0
3 -26 0
9 -26 0
-3 -9 26 0
c gate 27 2 10 0
2 -27 0
10 -27 0
-2 -10 27 0
c gate 28 26 27 0
26 -28 0
27 -28 0
-26 -27 28 0
c gate 29 -26 -27 0
-26 -29 0
-27 -29 0
26 27 29 0
c gate 30 1 11 0
1 -30 0
11 -30 0
-1 -11 30 0
c gate 31 -29 30 0
-29 -31 0
30 -31 0
29 -30 31 0
c gate 32 -28 -31 0
-28 -32 0
-31 -32 0
28 31 32 0
c gate 33 25 -32 0
25 -33 0
-32 -33 0
-25 32 33 0
c gate 34 1 12 0
1 -34 0
12 -34 0
-1 -12 34 0
c gate 35 -25 32 0
-25 -35 0
32 -35 0
25 -32 35 0
c gate 36 -33 -35 0
-33 -36 0
-35 -36 0
33 35 36 0
c gate 37 34 36 0
34 -37 0
36 -37 0
-34 -36 37 0
c gate 38 -33 -37 0
-33 -38 0
-37 -38 0
33 37 38 0
c gate 39 -20 -23 0
-20 -39 0
-23 -39 0
20 23 39 0
c gate 40 4 10 0
4 -40 0
10 -40 0
-4 -10 40 0
c gate 41 5 9 0
5 -41 0
9 -41 0
-5 -9 41 0
c gate 42 -40 -41 0
-40 -42 0
-41 -42 0
40 41 42 0
c gate 43 40 41 0
40 -43 0
41 -43 0
-40 -41 43 0
c gate 44 -42 -43 0
-42 -44 0
-43 -44 0
42 43 44 0
c gate 45 3 11 0
3 -45 0
11 -45 0
-3 -11 45 0
c gate 46 -44 45 0
-44 -46 0
45 -46 0
44 -45 46 0
c gate 47 44 -45 0
44 -47 0
-45 -47 0
-44 45 47 0
c gate 48 -46 -47 0
-46 -48 0
-47 -48 0
46 47 48 0
c gate 49 -39 -48 0
-39 -49 0
-48 -49 0
39 48 49 0
c gate 50 39 48 0
39 -50 0
48 -50 0
-39 -48 50 0
c gate 51 -49 -50 0
-49 -51 0
-50 -51 0
49 50 51 0
c gate 52 1 13 0
1 -52 0
13 -52 0
-1 -13 52 0
c gate 53 2 12 0
2 -53 0
12 -53 0
-2 -12 53 0
c gate 54 -52 -53 0
-52 -54 0
-53 -54 0
52 53 54 0
c gate 55 52 53 0
52 -55 0
53 -55 0
-52 -53 55 0
c gate 56 -54 -55 0
-54 -56 0
-55 -56 0
54 55 56 0
c gate 57 51 56 0
51 -57 0
56 -57 0
-51 -56 57 0
c gate 58 -51 -56 0
-51 -58 0
-56 -58 0
51 56 58 0
c gate 59 -57 -58 0
-57 -59 0
-58 -59 0
57 58 59 0
c gate 60 -38 59 0
-38 -60 0
59 -60 0
38 -59 60 0
c gate 61 -49 -57 0
-49 -61 0
-57 -61 0
49 57 61 0
c gate 62 1 14 0
1 -62 0
14 -62 0
-1 -14 62 0
c gate 63 2 13 0
2 -63 0
13 -63 0
-2 -13 63 0
c gate 64 3 12 0
3 -64 0
12 -64 0
-3 -12 64 0
c gate 65 -63 -64 0
-63 -65 0
-64 -65 0
63 64 65 0
c gate 66 63 64 0
63 -66 0
64 -66 0
-63 -64 66 0
c gate 67 -65 -66 0
-65 -67 0
-66 -67 0
65 66 67 0
c gate 68 62 67 0
62 -68 0
67 -68 0
-62 -67 68 0
c gate 69 -62 -67 0
-62 -69 0
-67 -69 0
62 67 69 0
c gate 70 -68 -69 0
-68 -70 0
-69 -70 0
68 69 70 0
c gate 71 4 11 0
4 -71 0
11 -71 0
-4 -11 71 0
c gate 72 5 10 0
5 -72 0
10 -72 0
-5 -10 72 0
c gate 73 6 9 0
6 -73 0
9 -73 0
-6 -9 73 0
c gate 74 -72 -73 0
-72 -74 0
-73 -74 0
72 73 74 0
c gate 75 72 73 0
72 -75 0
73 -75 0
-72 -73 75 0
c gate 76 -74 -75 0
-74 -76 0
-75 -76 0
74 75 76 0
c gate 77 -71 -76 0
-71 -77 0
-76 -77 0
71 76 77 0
c gate 78 71 76 0
71 -78 0
76 -78 0
-71 -76 78 0
c gate 79 -77 -78 0
-77 -79 0
-78 -79 0
77 78 79 0
c gate 80 -42 -47 0
-42 -80 0
-47 -80 0
42 47 80 0
c gate 81 79 80 0
79 -81 0
80 -81 0
-79 -80 81 0
c gate 82 -79 -80 0
-79 -82 0
-80 -82 0
79 80 82 0
c gate 83 -81 -82 0
-81 -83 0
-82 -83 0
81 82 83 0
c gate 84 70 83 0
70 -84 0
83 -84 0
-70 -83 84 0
c gate 85 -70 -83 0
-70 -85 0
-83 -85 0
70 83 85 0
c gate 86 -84 -85 0
-84 -86 0
-85 -86 0
84 85 86 0
c gate 87 -61 86 0
-61 -87 0
86 -87 0
61 -86 87 0
c gate 88 61 -86 0
61 -88 0
-86 -88 0
-61 86 88 0
c gate 89 -87 -88 0
-87 -89 0
-88 -89 0
87 88 89 0
c gate 90 55 89 0
55 -90 0
89 -90 0
-55 -89 90 0
c gate 91 -87 -90 0
-87 -91 0
-90 -91 0
87 90 91 0
c gate 92 -81 -84 0
-81 -92 0
-84 -92 0
81 84 92 0
c gate 93 -75 -78 0
-75 -93 0
-78 -93 0
75 78 93 0
c gate 94 6 10 0
6 -94 0
10 -94 0
-6 -10 94 0
c gate 95 7 9 0
7 -95 0
9 -95 0
-7 -9 95 0
c gate 96 -94 -95 0
-94 -96 0
-95 -96 0
94 95 96 0
c gate 97 94 95 0
94 -97 0
95 -97 0
-94 -95 97 0
c gate 98 -96 -97 0
-96 -98 0
-97 -98 0
96 97 98 0
c gate 99 5 11 0
5 -99 0
11 -99 0
-5 -11 99 0
c gate 100 -98 99 0
-98 -100 0
99 -100 0
98 -99 100 0
c gate 101 98 -99 0
98 -101 0
-99 -101 0
-98 99 101 0
c gate 102 -100 -101 0
-100 -102 0
-101 -102 0
100 101 102 0
c gate 103 93 102 0
93 -103 0
102 -103 0
-93 -102 103 0
c gate 104 -93 -102 0
-93 -104 0
-102 -104 0
93 102 104 0
c gate 105 -103 -104 0
-103 -105 0
-104 -105 0
103 104 105 0
c gate 106 2 14 0
2 -106 0
14 -106 0
-2 -14 106 0
c gate 107 3 13 0
3 -107 0
13 -107 0
-3 -13 107 0
c gate 108 4 12 0
4 -108 0
12 -108 0
-4 -12 108 0
c gate 109 -107 -108 0
-107 -109 0
-108 -109 0
107 108 109 0
c gate 110 107 108 0
107 -110 0
108 -110 0
-107 -108 110 0
c gate 111 -109 -110 0
-109 -111 0
-110 -111 0
109 110 111 0
c gate 112 106 111 0
106 -112 0
111 -112 0
-106 -111 112 0
c gate 113 -106 -111 0
-106 -113 0
-111 -113 0
106 111 113 0
c gate 114 -112 -113 0
-112 -114 0
-113 -114 0
112 113 114 0
c gate 115 -105 114 0
-105 -115 0
114 -115 0
105 -114 115 0
c gate 116 105 -114 0
105 -116 0
-114 -116 0
-105 114 116 0
c gate 117 -115 -116 0
-115 -117 0
-116 -117 0
115 116 117 0
c gate 118 -92 -117 0
-92 -118 0
-117 -118 0
92 117 118 0
c gate 119 92 117 0
92 -119 0
117 -119 0
-92 -117 119 0
c gate 120 -118 -119 0
-118 -120 0
-119 -120 0
118 119 120 0
c gate 121 1 15 0
1 -121 0
15 -121 0
-1 -15 121 0
c gate 122 -66 -68 0
-66 -122 0
-68 -122 0
66 68 122 0
c gate 123 121 -122 0
121 -123 0
-122 -123 0
-121 122 123 0
c gate 124 -121 122 0
-121 -124 0
122 -124 0
121 -122 124 0
c gate 125 -123 -124 0
-123 -125 0
-124 -125 0
123 124 125 0
c gate 126 120 125 0
120 -126 0
125 -126 0
-120 -125 126 0
c gate 127 -120 -125 0
-120 -127 0
-125 -127 0
120 125 127 0
c gate 128 -126 -127 0
-126 -128 0
-127 -128 0
126 127 128 0
c gate 129 91 -128 0
91 -129 0
-128 -129 0
-91 128 129 0
c gate 130 -91 128 0
-91 -130 0
128 -130 0
91 -128 130 0
c gate 131 -55 -89 0
-55 -131 0
-89 -131 0
55 89 131 0
c gate 132 -90 -131 0
-90 -132 0
-131 -132 0
90 131 132 0
c gate 133 -130 132 0
-130 -133 0
132 -133 0
130 -132 133 0
c gate 134 -129 133 0
-129 -134 0
133 -134 0
129 -133 134 0
c gate 135 60 134 0
60 -135 0
134 -135 0
-60 -134 135 0
c gate 136 -118 -126 0
-118 -136 0
-126 -136 0
118 126 136 0
c gate 137 1 16 0
1 -137 0
16 -137 0
-1 -16 137 0
c gate 138 2 15 0
2 -138 0
15 -138 0
-2 -15 138 0
c gate 139 -137 -138 0
-137 -139 0
-138 -139 0
137 138 139 0
c gate 140 137 138 0
137 -140 0
138 -140 0
-137 -138 140 0
c gate 141 -139 -140 0
-139 -141 0
-140 -141 0
139 140 141 0
c gate 142 -110 -112 0
-110 -142 0
-112 -142 0
110 112 142 0
c gate 143 -141 142 0
-141 -143 0
142 -143 0
141 -142 143 0
c gate 144 141 -142 0
141 -144 0
-142 -144 0
-141 142 144 0
c gate 145 -143 -144 0
-143 -145 0
-144 -145 0
143 144 145 0
c gate 146 3 14 0
3 -146 0
14 -146 0
-3 -14 146 0
c gate 147 4 13 0
4 -147 0
13 -147 0
-4 -13 147 0
c gate 148 5 12 0
5 -148 0
12 -148 0
-5 -12 148 0
c gate 149 -147 -148 0
-147 -149 0
-148 -149 0
147 148 149 0
c gate 150 147 148 0
147 -150 0
148 -150 0
-147 -148 150 0
c gate 151 -149 -150 0
-149 -151 0
-150 -151 0
149 150 151 0
c gate 152 -146 -151 0
-146 -152 0
-151 -152 0
146 151 152 0
c gate 153 146 151 0
146 -153 0
151 -153 0
-146 -151 153 0
c gate 154 -152 -153 0
-152 -154 0
-153 -154 0
152 153 154 0
c gate 155 6 11 0
6 -155 0
11 -155 0
-6 -11 155 0
c gate 156 7 10 0
7 -156 0
10 -156 0
-7 -10 156 0
c gate 157 8 9 0
8 -157 0
9 -157 0
-8 -9 157 0
c gate 158 -156 -157 0
-156 -158 0
-157 -158 0
156 157 158 0
c gate 159 156 157 0
156 -159 0
157 -159 0
-156 -157 159 0
c gate 160 -158 -159 0
-158 -160 0
-159 -160 0
158 159 160 0
c gate 161 155 160 0
155 -161 0
160 -161 0
-155 -160 161 0
c gate 162 -155 -160 0
-155 -162 0
-160 -162 0
155 160 162 0
c gate 163 -161 -162 0
-161 -163 0
-162 -163 0
161 162 163 0
c gate 164 -96 -101 0
-96 -164 0
-101 -164 0
96 101 164 0
c gate 165 163 164 0
163 -165 0
164 -165 0
-163 -164 165 0
c gate 166 -163 -164 0
-163 -166 0
-164 -166 0
163 164 166 0
c gate 167 -165 -166 0
-165 -167 0
-166 -167 0
165 166 167 0
c gate 168 -154 -167 0
-154 -168 0
-167 -168 0
154 167 168 0
c gate 169 154 167 0
154 -169 0
167 -169 0
-154 -167 169 0
c gate 170 -168 -169 0
-168 -170 0
-169 -170 0
168 169 170 0
c gate 171 -103 -116 0
-103 -171 0
-116 -171 0
103 116 171 0
c gate 172 170 171 0
170 -172 0
171 -172 0
-170 -171 172 0
c gate 173 -170 -171 0
-170 -173 0
-171 -173 0
170 171 173 0
c gate 174 -172 -173 0
-172 -174 0
-173 -174 0
172 173 174 0
c gate 175 -145 -174 0
-145 -175 0
-174 -175 0
145 174 175 0
c gate 176 145 174 0
145 -176 0
174 -176 0
-145 -174 176 0
c gate 177 -175 -176 0
-175 -177 0
-176 -177 0
175 176 177 0
c gate 178 -136 177 0
-136 -178 0
177 -178 0
136 -177 178 0
c gate 179 136 -177 0
136 -179 0
-177 -179 0
-136 177 179 0
c gate 180 -178 -179 0
-178 -180 0
-179 -180 0
178 179 180 0
c gate 181 123 180 0
123 -181 0
180 -181 0
-123 -180 181 0
c gate 182 -123 -180 0
-123 -182 0
-180 -182 0
123 180 182 0
c gate 183 -181 -182 0
-181 -183 0
-182 -183 0
181 182 183 0
c gate 184 130 183 0
130 -184 0
183 -184 0
-130 -183 184 0
c gate 185 -130 -183 0
-130 -185 0
-183 -185 0
130 183 185 0
c gate 186 -184 -185 0
-184 -186 0
-185 -186 0
184 185 186 0
c gate 187 -135 -186 0
-135 -187 0
-186 -187 0
135 186 187 0
c gate 188 135 186 0
135 -188 0
186 -188 0
-135 -186 188 0
c gate 189 38 -59 0
38 -189 0
-59 -189 0
-38 59 189 0
c gate 190 -34 -36 0
-34 -190 0
-36 -190 0
34 36 190 0
c gate 191 -3 -11 0
-3 -191 0
-11 -191 0
3 11 191 0
c gate 192 -45 -191 0
-45 -192 0
-191 -192 0
45 191 192 0
c gate 193 1 9 0
1 -193 0
9 -193 0
-1 -9 193 0
c gate 194 27 193 0
27 -194 0
193 -194 0
-27 -193 194 0
c gate 195 -192 194 0
-192 -195 0
194 -195 0
192 -194 195 0
c gate 196 -37 195 0
-37 -196 0
195 -196 0
37 -195 196 0
c gate 197 -190 196 0
-190 -197 0
196 -197 0
190 -196 197 0
c gate 198 -60 197 0
-60 -198 0
197 -198 0
60 -197 198 0
c gate 199 -189 198 0
-189 -199 0
198 -199 0
189 -198 199 0
c gate 200 134 199 0
134 -200 0
199 -200 0
-134 -199 200 0
c gate 201 -188 200 0
-188 -201 0
200 -201 0
188 -200 201 0
c gate 202 -187 201 0
-187 -202 0
201 -202 0
187 -201 202 0
c PO
202 0
